32      10      
13      11      17      18      20      17      16      12      17      18      
0       0       0       0       0       0       0       0       0       0       0       11      2       3       4       5       7       8       9       12      13      14      17      
8       1       4       5       5       1       0       0       0       3       0       5       6       15      19      26      31      
7       7       0       1       0       1       1       0       1       3       0       5       11      15      16      18      25      
1       0       5       13      9       0       0       1       1       0       1       3       10      15      18      
8       8       7       0       0       0       1       1       0       3       6       3       15      16      23      
6       12      6       0       0       0       1       1       1       0       1       3       21      22      25      
1       0       0       15      0       1       0       1       1       1       1       2       15      23      
1       5       1       3       1       7       0       0       0       0       1       2       15      23      
6       1       0       1       0       0       1       1       1       0       1       2       15      24      
1       3       10      0       8       0       2       0       1       0       1       4       24      25      28      30      
3       0       0       1       11      8       0       1       2       1       0       3       20      24      30      
5       0       0       0       6       6       2       2       1       0       1       3       20      24      30      
2       1       9       0       0       1       1       1       0       0       1       4       26      27      29      30      
3       0       3       3       18      0       5       0       1       7       0       3       23      28      30      
10      5       5       0       0       1       0       1       5       0       1       2       20      30      
7       0       11      1       11      0       0       0       1       4       1       3       26      27      29      
1       4       0       0       0       1       4       1       4       1       0       3       25      28      30      
10      6       11      0       18      1       0       10      1       0       0       2       23      28      
3       2       0       2       11      1       4       0       0       1       0       1       20      
3       3       0       0       1       1       0       1       0       1       2       3       27      28      29      
1       3       5       1       18      0       0       0       1       1       0       3       27      28      30      
8       6       0       1       10      0       1       0       1       0       1       1       23      
1       0       0       7       18      8       1       6       0       1       0       1       24      
1       6       7       0       0       1       0       1       1       1       0       1       27      
1       1       6       9       0       1       1       1       0       0       0       1       29      
5       0       0       1       10      0       1       1       0       3       1       1       28      
1       6       6       0       7       0       2       0       0       3       1       1       32      
7       0       11      1       0       1       0       0       1       1       8       1       32      
3       0       0       11      11      1       1       1       0       0       5       1       32      
6       0       2       0       18      1       2       0       1       1       0       1       32      
10      0       10      1       0       0       6       3       0       1       5       1       32      
0       0       0       0       0       0       0       0       0       0       0       0       
